WARNING: for repeatability, setting FPU to use double precision
============================[ Problem Statistics ]=============================
|                                                                             |
|  Number of variables:          5776                                         |
|  Number of clauses:           17200                                         |
|  Parse time:                   0.00 s                                       |
|                                                                             |
c ============================[ Search Statistics ]==============================
c | Conflicts |          ORIGINAL         |          LEARNT          | Progress |
c |           |    Vars  Clauses Literals |    Limit  Clauses Lit/Cl |          |
c ===============================================================================
c Switched to VSIDS.
c Switched to LRB.
c Switched to VSIDS.
c Switched to LRB.
c Switched to VSIDS.
c Switched to LRB.
c Switched to VSIDS.
c Switched to LRB.
c Switched to VSIDS.
c Switched to LRB.
c Switched to VSIDS.
c Switched to LRB.
c Switched to VSIDS.
c Switched to LRB.
c Switched to VSIDS.
c Switched to LRB.
c Switched to VSIDS.
c Switched to LRB.
c Switched to VSIDS.
c Switched to LRB.
c Switched to VSIDS.
c Switched to LRB.
c Switched to VSIDS.
c Switched to LRB.
c Switched to VSIDS.
c Switched to LRB.
c Switched to VSIDS.
c Switched to LRB.
c Switched to VSIDS.
c ===============================================================================
restarts                  : 12200
conflicts                 : 5226072        (1464 /sec)
decisions                 : 6332200        (0.00 % random) (1773 /sec)
propagations              : 5040813766     (1411752 /sec)
conflict literals         : 288200588      (54.36 % deleted)

conflicts w/ DIP found    : 3386686        (64.80 % of conflicts)
conflicts w/ dangerous DIP: 0              (0.00 % of conflicts)
conflicts w/ DIP-learning : 36591          (0.70 % of conflicts)
decisions on ext vars     : 12879          (0.20 % of decisions)
total ext vars            : 3429        
tried delete ext vars     : 0           
deleted ext vars          : 0           
max ext vars              : 3429        

Memory used               : 309.00 MB
CPU time                  : 3570.61 s
DIP computation time      : 82.3417 s (2.31 % of total time)
ER_sel time               : 6.00038 s
ER_add time               : 0.015411 s
ER_delC time              : 0 s
ER_delV time              : 0 s
ER_sub time               : 8.0449 s
ER_stat time              : 0 s

INDETERMINATE
